c Result of efficient AIG-to-CNF conversion using package CNF
p cnf 433 1523
2 3 -248 0
2 396 3 -14 0
-2 -3 0
-2 -396 248 0
-2 14 248 0
-3 4 10 12 13 0
3 -13 0
3 -4 0
3 -12 0
3 -10 0
-4 393 394 5 7 0
4 -393 0
4 -7 0
4 -5 0
4 -394 0
-5 385 391 392 6 0
5 -6 0
5 -392 0
5 -385 0
5 -391 0
-6 389 390 395 0
6 -389 0
6 -395 0
6 -390 0
-7 381 382 8 9 0
7 -381 0
7 -9 0
7 -8 0
7 -382 0
-8 386 387 388 0
8 -386 0
8 -388 0
8 -387 0
-9 377 378 383 384 0
9 -384 0
9 -383 0
9 -377 0
9 -378 0
-10 375 379 380 11 0
10 -11 0
10 -380 0
10 -375 0
10 -379 0
-11 373 374 0
11 -373 0
11 -374 0
-12 369 376 0
12 -369 0
12 -376 0
-13 370 371 372 0
13 -370 0
13 -372 0
13 -371 0
-14 15 208 235 240 0
14 -240 0
14 -15 0
14 -235 0
14 -208 0
-15 16 187 189 197 0
-15 16 -187 -189 197 0
15 -197 0
15 -187 189 0
15 -16 0
15 187 -189 0
-16 -417 17 131 0
-16 17 131 145 0
16 -17 0
16 -131 0
16 417 -145 0
-17 123 125 130 0
-17 -18 -125 -130 0
-17 -18 125 130 0
-17 123 -125 -130 0
17 125 -130 0
17 -125 130 0
17 18 -123 0
18 397 -19 0
-18 -397 0
-18 19 0
19 398 -20 0
19 -398 -112 0
-19 -398 112 0
-19 398 20 0
20 399 -21 0
20 -399 -79 0
-20 -399 79 0
-20 399 21 0
21 400 -22 0
21 -400 -50 0
-21 -400 50 0
-21 400 22 0
22 -396 3 -38 0
22 396 3 -23 0
-22 -3 0
-22 -396 38 0
-22 396 23 0
-23 397 24 0
-23 -397 31 0
23 -397 -31 0
23 397 -24 0
-24 398 28 0
-24 -398 25 0
24 -398 -25 0
24 398 -28 0
25 399 -26 0
25 -399 -27 0
-25 -399 27 0
-25 399 26 0
26 -400 -423 0
26 400 -424 0
-26 400 424 0
-26 -400 423 0
27 -400 -421 0
27 400 -422 0
-27 400 422 0
-27 -400 421 0
28 399 -29 0
28 -399 -30 0
-28 -399 30 0
-28 399 29 0
29 -400 -427 0
29 400 -428 0
-29 400 428 0
-29 -400 427 0
30 -400 -425 0
30 400 -426 0
-30 400 426 0
-30 -400 425 0
31 398 -32 0
31 -398 -35 0
-31 -398 35 0
-31 398 32 0
32 399 -33 0
32 -399 -34 0
-32 -399 34 0
-32 399 33 0
33 -400 -419 0
33 400 -420 0
-33 400 420 0
-33 -400 419 0
34 -400 -417 0
34 400 -418 0
-34 400 418 0
-34 -400 417 0
35 399 -36 0
35 -399 -37 0
-35 -399 37 0
-35 399 36 0
36 -400 -415 0
36 400 -416 0
-36 400 416 0
-36 -400 415 0
37 -400 -413 0
37 400 -414 0
-37 400 414 0
-37 -400 413 0
38 397 -39 0
38 -397 -46 0
-38 -397 46 0
-38 397 39 0
39 398 -40 0
39 -398 -43 0
-39 -398 43 0
-39 398 40 0
40 399 -41 0
40 -399 -42 0
-40 -399 42 0
-40 399 41 0
41 -400 -411 0
41 400 -412 0
-41 400 412 0
-41 -400 411 0
42 -400 -409 0
42 400 -410 0
-42 400 410 0
-42 -400 409 0
43 399 -44 0
43 -399 -45 0
-43 -399 45 0
-43 399 44 0
44 -400 -407 0
44 400 -408 0
-44 400 408 0
-44 -400 407 0
45 -400 -405 0
45 400 -406 0
-45 400 406 0
-45 -400 405 0
46 398 -47 0
-46 -398 0
-46 47 0
47 399 -48 0
47 -399 -49 0
-47 -399 49 0
-47 399 48 0
48 -400 -403 0
48 400 -404 0
-48 400 404 0
-48 -400 403 0
49 -400 -401 0
49 400 -402 0
-49 400 402 0
-49 -400 401 0
50 -396 3 -66 0
50 396 3 -51 0
-50 -3 0
-50 -396 66 0
-50 396 51 0
-51 397 52 0
-51 -397 59 0
51 -397 -59 0
51 397 -52 0
-52 398 53 0
-52 -398 56 0
52 -398 -56 0
52 398 -53 0
-53 399 55 0
-53 -399 54 0
53 -399 -54 0
53 399 -55 0
54 -400 -426 0
54 400 -427 0
-54 400 427 0
-54 -400 426 0
55 -400 -428 0
55 400 -429 0
-55 400 429 0
-55 -400 428 0
56 399 -57 0
56 -399 -58 0
-56 -399 58 0
-56 399 57 0
57 -400 -424 0
57 400 -425 0
-57 400 425 0
-57 -400 424 0
58 -400 -422 0
58 400 -423 0
-58 400 423 0
-58 -400 422 0
59 398 -60 0
59 -398 -63 0
-59 -398 63 0
-59 398 60 0
60 399 -61 0
60 -399 -62 0
-60 -399 62 0
-60 399 61 0
61 -400 -420 0
61 400 -421 0
-61 400 421 0
-61 -400 420 0
62 -400 -418 0
62 400 -419 0
-62 400 419 0
-62 -400 418 0
63 399 -64 0
63 -399 -65 0
-63 -399 65 0
-63 399 64 0
64 -400 -416 0
64 400 -417 0
-64 400 417 0
-64 -400 416 0
65 -400 -414 0
65 400 -415 0
-65 400 415 0
-65 -400 414 0
66 397 -67 0
66 -397 -74 0
-66 -397 74 0
-66 397 67 0
67 398 -68 0
67 -398 -71 0
-67 -398 71 0
-67 398 68 0
68 399 -69 0
68 -399 -70 0
-68 -399 70 0
-68 399 69 0
69 -400 -412 0
69 400 -413 0
-69 400 413 0
-69 -400 412 0
70 -400 -410 0
70 400 -411 0
-70 400 411 0
-70 -400 410 0
71 399 -72 0
71 -399 -73 0
-71 -399 73 0
-71 399 72 0
72 -400 -408 0
72 400 -409 0
-72 400 409 0
-72 -400 408 0
73 -400 -406 0
73 400 -407 0
-73 400 407 0
-73 -400 406 0
74 398 -75 0
74 -398 -78 0
-74 -398 78 0
-74 398 75 0
75 399 -76 0
75 -399 -77 0
-75 -399 77 0
-75 399 76 0
76 -400 -404 0
76 400 -405 0
-76 400 405 0
-76 -400 404 0
77 -400 -402 0
77 400 -403 0
-77 400 403 0
-77 -400 402 0
78 399 400 -401 0
-78 401 0
-78 -400 0
-78 -399 0
79 400 -80 0
79 -400 -96 0
-79 -400 96 0
-79 400 80 0
80 -396 3 -89 0
80 396 3 -81 0
-80 -3 0
-80 -396 89 0
-80 396 81 0
-81 397 82 0
-81 -397 86 0
81 -397 -86 0
81 397 -82 0
-82 398 83 0
-82 -398 85 0
82 -398 -85 0
82 398 -83 0
-83 399 84 0
-83 -399 29 0
83 -399 -29 0
83 399 -84 0
84 -400 -429 0
84 400 -430 0
-84 400 430 0
-84 -400 429 0
85 -399 -26 0
85 399 -30 0
-85 399 30 0
-85 -399 26 0
86 398 -87 0
86 -398 -88 0
-86 -398 88 0
-86 398 87 0
87 399 -27 0
87 -399 -33 0
-87 -399 33 0
-87 399 27 0
88 399 -34 0
88 -399 -36 0
-88 -399 36 0
-88 399 34 0
89 397 -90 0
89 -397 -93 0
-89 -397 93 0
-89 397 90 0
90 398 -91 0
90 -398 -92 0
-90 -398 92 0
-90 398 91 0
91 399 -37 0
91 -399 -41 0
-91 -399 41 0
-91 399 37 0
92 399 -42 0
92 -399 -44 0
-92 -399 44 0
-92 399 42 0
93 398 -94 0
93 -398 -95 0
-93 -398 95 0
-93 398 94 0
94 399 -45 0
94 -399 -48 0
-94 -399 48 0
-94 399 45 0
95 399 400 -402 0
95 399 -400 -401 0
-95 -399 0
-95 -400 401 0
-95 400 402 0
96 -396 3 -105 0
96 396 3 -97 0
-96 -3 0
-96 -396 105 0
-96 396 97 0
-97 397 98 0
-97 -397 102 0
97 -397 -102 0
97 397 -98 0
-98 398 99 0
-98 -398 101 0
98 -398 -101 0
98 398 -99 0
-99 399 100 0
-99 -399 55 0
99 -399 -55 0
99 399 -100 0
100 -400 -430 0
100 400 -431 0
-100 400 431 0
-100 -400 430 0
101 399 -54 0
101 -399 -57 0
-101 -399 57 0
-101 399 54 0
102 398 -103 0
102 -398 -104 0
-102 -398 104 0
-102 398 103 0
103 399 -58 0
103 -399 -61 0
-103 -399 61 0
-103 399 58 0
104 399 -62 0
104 -399 -64 0
-104 -399 64 0
-104 399 62 0
105 397 -106 0
105 -397 -109 0
-105 -397 109 0
-105 397 106 0
106 398 -107 0
106 -398 -108 0
-106 -398 108 0
-106 398 107 0
107 399 -65 0
107 -399 -69 0
-107 -399 69 0
-107 399 65 0
108 399 -70 0
108 -399 -72 0
-108 -399 72 0
-108 399 70 0
109 398 -110 0
109 -398 -111 0
-109 -398 111 0
-109 398 110 0
110 399 -73 0
110 -399 -76 0
-110 -399 76 0
-110 399 73 0
111 399 -77 0
111 -399 400 -401 0
-111 -399 -400 0
-111 399 77 0
-111 -399 401 0
112 399 -113 0
-112 -399 0
-112 113 0
113 400 -114 0
-113 -400 0
-113 114 0
114 -396 3 -120 0
114 396 3 -115 0
-114 -3 0
-114 -396 120 0
-114 396 115 0
-115 397 116 0
-115 -397 119 0
115 -397 -119 0
115 397 -116 0
-116 -398 28 0
-116 398 117 0
116 -398 -28 0
116 398 -117 0
-117 399 118 0
-117 -399 84 0
117 -399 -84 0
117 399 -118 0
118 -400 -431 0
118 400 -432 0
-118 400 432 0
-118 -400 431 0
119 398 -25 0
119 -398 -32 0
-119 -398 32 0
-119 398 25 0
120 397 -121 0
120 -397 -122 0
-120 -397 122 0
-120 397 121 0
121 398 -35 0
121 -398 -40 0
-121 -398 40 0
-121 398 35 0
122 398 -43 0
122 -398 -47 0
-122 -398 47 0
-122 398 43 0
123 -428 124 0
-123 428 0
-123 -124 0
-124 397 398 0
-124 397 399 400 0
124 -397 0
124 -398 -399 0
124 -398 -400 0
125 397 -126 0
-125 -397 0
-125 126 0
126 398 -127 0
-126 -398 0
-126 127 0
127 399 -128 0
127 -399 -129 0
-127 -399 129 0
-127 399 128 0
128 400 -50 0
128 -400 -80 0
-128 -400 80 0
-128 400 50 0
129 400 -96 0
129 -400 -114 0
-129 -400 114 0
-129 400 96 0
130 397 398 -429 0
-130 429 0
-130 -398 0
-130 -397 0
131 -132 144 0
-131 132 0
-131 -144 0
132 397 -133 0
-132 -397 0
-132 133 0
133 398 -134 0
133 -398 -143 0
-133 -398 143 0
-133 398 134 0
134 -399 -128 0
134 399 -135 0
-134 399 135 0
-134 -399 128 0
135 -400 -22 0
135 400 -136 0
-135 400 136 0
-135 -400 22 0
136 -396 3 -140 0
136 396 3 -137 0
-136 -3 0
-136 -396 140 0
-136 396 137 0
-137 397 138 0
-137 -397 139 0
137 -397 -139 0
137 397 -138 0
-138 -398 103 0
-138 398 101 0
138 398 -101 0
138 -398 -103 0
139 398 -104 0
139 -398 -107 0
-139 -398 107 0
-139 398 104 0
140 397 -141 0
140 -397 -142 0
-140 -397 142 0
-140 397 141 0
141 398 -108 0
141 -398 -110 0
-141 -398 110 0
-141 398 108 0
142 398 -111 0
-142 -398 0
-142 111 0
143 399 -129 0
-143 -399 0
-143 129 0
144 397 398 -427 0
144 397 399 -427 0
-144 -397 0
-144 427 0
-144 -398 -399 0
145 397 -146 0
145 -397 -176 0
-145 -397 176 0
-145 397 146 0
146 398 -147 0
146 -398 -165 0
-146 -398 165 0
-146 398 147 0
147 399 -148 0
147 -399 -160 0
-147 -399 160 0
-147 399 148 0
148 400 -149 0
148 -400 -155 0
-148 -400 155 0
-148 400 149 0
149 3 -152 0
149 3 -150 -151 0
-149 -3 0
-149 150 152 0
-149 151 152 0
150 398 399 400 -401 0
-150 401 0
-150 -400 0
-150 -398 0
-150 -399 0
151 -396 397 0
-151 396 0
-151 -397 0
152 396 397 -154 0
152 396 -397 -153 0
-152 -396 0
-152 -397 153 0
-152 397 154 0
153 398 -71 0
153 -398 -75 0
-153 -398 75 0
-153 398 71 0
154 398 -63 0
154 -398 -68 0
-154 -398 68 0
-154 398 63 0
155 3 -157 0
155 3 -151 -156 0
-155 -3 0
-155 151 157 0
-155 156 157 0
156 398 -95 0
-156 -398 0
-156 95 0
157 396 397 -159 0
157 396 -397 -158 0
-157 -396 0
-157 -397 158 0
-157 397 159 0
158 398 -92 0
158 -398 -94 0
-158 -398 94 0
-158 398 92 0
159 398 -88 0
159 -398 -91 0
-159 -398 91 0
-159 398 88 0
160 400 -161 0
160 -400 -163 0
-160 -400 163 0
-160 400 161 0
161 3 -162 0
161 3 -142 -151 0
-161 -3 0
-161 142 162 0
-161 151 162 0
162 396 -397 -141 0
162 396 397 -139 0
-162 -396 0
-162 -397 141 0
-162 397 139 0
163 3 -164 0
163 3 -46 -151 0
-163 -3 0
-163 46 164 0
-163 151 164 0
164 396 -397 -39 0
164 396 397 -31 0
-164 -396 0
-164 -397 39 0
-164 397 31 0
165 399 -166 0
165 -399 -171 0
-165 -399 171 0
-165 399 166 0
166 400 -167 0
166 -400 -169 0
-166 -400 169 0
-166 400 167 0
167 3 -168 0
167 3 -74 -151 0
-167 -3 0
-167 74 168 0
-167 151 168 0
168 396 -397 -67 0
168 396 397 -59 0
-168 -396 0
-168 -397 67 0
-168 397 59 0
169 3 -170 0
169 3 -93 -151 0
-169 -3 0
-169 93 170 0
-169 151 170 0
170 396 -397 -90 0
170 396 397 -86 0
-170 -396 0
-170 -397 90 0
-170 397 86 0
171 400 -172 0
171 -400 -174 0
-171 -400 174 0
-171 400 172 0
172 3 -173 0
172 3 -109 -151 0
-172 -3 0
-172 109 173 0
-172 151 173 0
173 396 -397 -106 0
173 396 397 -102 0
-173 -396 0
-173 -397 106 0
-173 397 102 0
174 3 -175 0
174 3 -122 -151 0
-174 -3 0
-174 122 175 0
-174 151 175 0
175 396 -397 -121 0
175 396 397 -119 0
-175 -396 0
-175 -397 121 0
-175 397 119 0
176 -398 -127 0
176 398 -177 0
-176 398 177 0
-176 -398 127 0
177 -399 -135 0
177 399 -178 0
-177 399 178 0
-177 -399 135 0
178 400 -179 0
178 -400 -183 0
-178 -400 183 0
-178 400 179 0
179 -396 3 -182 0
179 396 3 -180 0
-179 -3 0
-179 -396 182 0
-179 396 180 0
-180 -397 154 0
-180 397 181 0
180 -397 -154 0
180 397 -181 0
-181 -398 60 0
-181 398 56 0
181 398 -56 0
181 -398 -60 0
182 -397 -150 0
182 397 -153 0
-182 397 153 0
-182 -397 150 0
183 -396 3 -186 0
183 396 3 -184 0
-183 -3 0
-183 -396 186 0
-183 396 184 0
-184 -397 159 0
-184 397 185 0
184 -397 -159 0
184 397 -185 0
-185 -398 87 0
-185 398 85 0
185 398 -85 0
185 -398 -87 0
186 -397 -156 0
186 397 -158 0
-186 397 158 0
-186 -397 156 0
187 -420 188 0
-187 420 0
-187 -188 0
188 -397 -398 -400 0
188 -397 -398 -399 0
-188 397 0
-188 398 0
-188 399 400 0
189 -397 -19 0
189 397 -190 0
-189 397 190 0
-189 -397 19 0
190 398 -191 0
190 -398 -194 0
-190 -398 194 0
-190 398 191 0
191 399 -192 0
191 -399 -193 0
-191 -399 193 0
-191 399 192 0
192 400 -163 0
192 -400 -167 0
-192 -400 167 0
-192 400 163 0
193 400 -169 0
193 -400 -172 0
-193 -400 172 0
-193 400 169 0
194 399 -195 0
194 -399 -196 0
-194 -399 196 0
-194 399 195 0
195 400 -174 0
195 -400 -179 0
-195 -400 179 0
-195 400 174 0
196 -400 -136 0
196 400 -183 0
-196 400 183 0
-196 -400 136 0
-197 -198 -199 201 0
-197 198 199 201 0
197 -201 0
197 -198 199 0
197 198 -199 0
198 398 -421 0
198 397 -421 0
-198 421 0
-198 -397 -398 0
199 -397 -126 0
199 397 -200 0
-199 397 200 0
-199 -397 126 0
200 398 -165 0
200 -398 -177 0
-200 -398 177 0
-200 398 165 0
-201 417 -202 -206 0
-201 -145 202 206 0
-201 417 202 206 0
-201 -145 -202 -206 0
201 202 -206 0
201 -202 206 0
201 -417 145 0
202 397 -203 0
-202 -397 0
-202 203 0
203 398 -204 0
203 -398 -205 0
-203 -398 205 0
-203 398 204 0
204 -399 -21 0
204 399 -196 0
-204 399 196 0
-204 -399 21 0
205 399 -79 0
205 -399 -113 0
-205 -399 113 0
-205 399 79 0
206 -426 207 0
-206 426 0
-206 -207 0
-207 397 399 0
-207 397 398 0
-207 397 400 0
207 -397 0
207 -398 -399 -400 0
-208 209 211 214 222 0
-208 -209 -211 214 222 0
208 -222 0
208 -209 211 0
208 -214 0
208 209 -211 0
209 -424 210 0
-209 424 0
-209 -210 0
210 -397 -398 0
210 -397 -400 0
210 -397 -399 0
-210 397 0
-210 398 399 400 0
211 397 -212 0
211 -397 -213 0
-211 -397 213 0
-211 397 212 0
212 -398 -20 0
212 398 -194 0
-212 398 194 0
-212 -398 20 0
213 398 -112 0
-213 -398 0
-213 112 0
-214 -123 215 0
-214 18 215 0
214 -215 0
214 -18 123 0
-215 216 217 -219 -221 0
-215 -216 -217 -219 -221 0
-215 216 217 219 221 0
-215 -216 -217 219 221 0
215 216 -217 0
215 -216 217 0
215 219 -221 0
215 -219 221 0
216 397 -213 0
-216 -397 0
-216 213 0
217 -432 218 0
-217 432 0
-217 -218 0
-218 397 398 399 400 0
218 -400 0
218 -399 0
218 -397 0
218 -398 0
219 397 -220 0
-219 -397 0
-219 220 0
220 398 -143 0
-220 -398 0
-220 143 0
221 397 398 399 -431 0
-221 431 0
-221 -399 0
-221 -397 0
-221 -398 0
-222 223 224 -228 -230 0
-222 -223 -224 -228 -230 0
-222 223 224 228 230 0
-222 -223 -224 228 230 0
222 223 -224 0
222 -223 224 0
222 228 -230 0
222 -228 230 0
223 398 -419 0
223 397 -419 0
223 399 -419 0
-223 419 0
-223 -397 -398 -399 0
224 -397 -133 0
224 397 -225 0
-224 397 225 0
-224 -397 133 0
225 398 -226 0
225 -398 -227 0
-225 -398 227 0
-225 398 226 0
226 399 -160 0
226 -399 -166 0
-226 -399 166 0
-226 399 160 0
227 399 -171 0
227 -399 -178 0
-227 -399 178 0
-227 399 171 0
228 -418 229 0
-228 418 0
-228 -229 0
229 -397 -398 -399 -400 0
-229 400 0
-229 397 0
-229 399 0
-229 398 0
230 -397 -203 0
230 397 -231 0
-230 397 231 0
-230 -397 203 0
231 398 -232 0
231 -398 -234 0
-231 -398 234 0
-231 398 232 0
232 -399 -192 0
232 399 -233 0
-232 399 233 0
-232 -399 192 0
233 400 -155 0
233 -400 -161 0
-233 -400 161 0
-233 400 155 0
234 399 -193 0
234 -399 -195 0
-234 -399 195 0
-234 399 193 0
-235 144 236 238 0
-235 -132 -236 -238 0
-235 -132 236 238 0
-235 144 -236 -238 0
235 236 -238 0
235 -236 238 0
235 132 -144 0
236 397 -237 0
-236 -397 0
-236 237 0
237 398 -205 0
-237 -398 0
-237 205 0
238 -430 239 0
-238 430 0
-238 -239 0
-239 397 398 400 0
-239 397 398 399 0
239 -397 0
239 -398 0
239 -399 -400 0
-240 241 243 -245 -246 0
-240 -241 -243 -245 -246 0
-240 241 243 245 246 0
-240 -241 -243 245 246 0
240 241 -243 0
240 -241 243 0
240 245 -246 0
240 -245 246 0
241 -422 242 0
-241 422 0
-241 -242 0
242 -397 -398 0
242 -397 -399 -400 0
-242 397 0
-242 398 400 0
-242 398 399 0
243 -397 -237 0
243 397 -244 0
-243 397 244 0
-243 -397 237 0
244 -398 -204 0
244 398 -234 0
-244 398 234 0
-244 -398 204 0
245 397 -423 0
245 398 399 -423 0
-245 423 0
-245 -397 -399 0
-245 -397 -398 0
246 -397 -220 0
246 397 -247 0
-246 397 247 0
-246 -397 220 0
247 -398 -134 0
247 398 -227 0
-247 398 227 0
-247 -398 134 0
-248 249 319 343 354 0
248 -354 0
248 -249 0
248 -343 0
248 -319 0
-249 250 276 291 296 0
249 -296 0
249 -291 0
249 -250 0
249 -276 0
250 396 -407 252 0
250 -407 251 252 0
-250 407 0
-250 -252 0
-250 -396 -251 0
251 -397 -398 0
251 -397 -399 0
-251 397 0
-251 398 399 0
252 -396 -246 0
252 396 -253 0
-252 396 253 0
-252 -396 246 0
253 397 -254 0
253 -397 -271 0
-253 -397 271 0
-253 397 254 0
254 398 -255 0
254 -398 -264 0
-254 -398 264 0
-254 398 255 0
255 399 -256 0
255 -399 -261 0
-255 -399 261 0
-255 399 256 0
256 400 -257 0
256 -400 -260 0
-256 -400 260 0
-256 400 257 0
257 -109 258 0
-257 109 0
-257 -258 0
-258 397 259 0
258 -397 0
258 -259 0
-259 396 3 0
259 -396 0
259 -3 0
260 -122 258 0
-260 122 0
-260 -258 0
261 400 -262 0
261 -400 -263 0
-261 -400 263 0
-261 400 262 0
262 -182 259 0
-262 182 0
-262 -259 0
263 -186 259 0
-263 186 0
-263 -259 0
264 399 -265 0
264 -399 -268 0
-264 -399 268 0
-264 399 265 0
265 400 -266 0
265 -400 -267 0
-265 -400 267 0
-265 400 266 0
266 -140 259 0
-266 140 0
-266 -259 0
267 -38 259 0
-267 38 0
-267 -259 0
268 400 -269 0
268 -400 -270 0
-268 -400 270 0
-268 400 269 0
269 -66 259 0
-269 66 0
-269 -259 0
270 -89 259 0
-270 89 0
-270 -259 0
271 -398 -226 0
271 398 -272 0
-271 398 272 0
-271 -398 226 0
272 -399 -148 0
272 399 -273 0
-272 399 273 0
-272 -399 148 0
273 400 -274 0
273 -400 -275 0
-273 -400 275 0
-273 400 274 0
274 -105 259 0
-274 105 0
-274 -259 0
275 -120 259 0
-275 120 0
-275 -259 0
276 396 -406 277 0
276 -406 242 277 0
-276 406 0
-276 -277 0
-276 -396 -242 0
277 -396 -243 0
277 396 -278 0
-277 396 278 0
-277 -396 243 0
278 397 -279 0
278 -397 -287 0
-278 -397 287 0
-278 397 279 0
279 398 -280 0
279 -398 -284 0
-279 -398 284 0
-279 398 280 0
280 399 -281 0
280 -399 -283 0
-280 -399 283 0
-280 399 281 0
281 -400 -257 0
281 400 -282 0
-281 400 282 0
-281 -400 257 0
282 -93 258 0
-282 93 0
-282 -258 0
283 400 -260 0
283 -400 -262 0
-283 -400 262 0
-283 400 260 0
284 399 -285 0
284 -399 -286 0
-284 -399 286 0
-284 399 285 0
285 400 -263 0
285 -400 -266 0
-285 -400 266 0
-285 400 263 0
286 400 -267 0
286 -400 -269 0
-286 -400 269 0
-286 400 267 0
287 -398 -232 0
287 398 -288 0
-287 398 288 0
-287 -398 232 0
288 399 -289 0
288 -399 -290 0
-288 -399 290 0
-288 399 289 0
289 400 -270 0
289 -400 -274 0
-289 -400 274 0
-289 400 270 0
290 -400 -149 0
290 400 -275 0
-290 400 275 0
-290 -400 149 0
291 -396 125 -292 0
291 396 -292 293 0
-291 292 0
-291 396 -293 0
-291 -396 -125 0
292 396 -413 0
292 397 398 -413 0
-292 413 0
-292 -396 -398 0
-292 -396 -397 0
293 -397 -200 0
293 397 -294 0
-293 397 294 0
-293 -397 200 0
294 -398 -147 0
294 398 -295 0
-294 398 295 0
-294 -398 147 0
295 399 -268 0
295 -399 -273 0
-295 -399 273 0
-295 399 268 0
-296 297 307 -317 0
-296 297 307 316 0
296 -297 0
296 -307 0
296 -316 317 0
297 396 -402 298 0
297 -402 229 298 0
-297 402 0
-297 -298 0
-297 -396 -229 0
298 -396 -230 0
298 396 -299 0
-298 396 299 0
-298 -396 230 0
299 397 -300 0
299 -397 -306 0
-299 -397 306 0
-299 397 300 0
300 -398 -280 0
300 398 -301 0
-300 398 301 0
-300 -398 280 0
301 399 -302 0
301 -399 -303 0
-301 -399 303 0
-301 399 302 0
302 -400 -142 258 0
302 400 -156 258 0
-302 -258 0
-302 -400 142 0
-302 400 156 0
303 400 -304 0
303 -400 -305 0
-303 -400 305 0
-303 400 304 0
304 -46 258 0
-304 46 0
-304 -258 0
305 -74 258 0
-305 74 0
-305 -258 0
306 398 -284 0
306 -398 -288 0
-306 -398 288 0
-306 398 284 0
307 396 -404 308 0
307 -404 188 308 0
-307 404 0
-307 -308 0
-307 -396 -188 0
308 -396 -189 0
308 396 -309 0
-308 396 309 0
-308 -396 189 0
309 397 -310 0
309 -397 -313 0
-309 -397 313 0
-309 397 310 0
310 398 -311 0
310 -398 -312 0
-310 -398 312 0
-310 398 311 0
311 -399 -281 0
311 399 -303 0
-311 399 303 0
-311 -399 281 0
312 399 -283 0
312 -399 -285 0
-312 -399 285 0
-312 399 283 0
313 398 -314 0
313 -398 -315 0
-313 -398 315 0
-313 398 314 0
314 399 -286 0
314 -399 -289 0
-314 -399 289 0
-314 399 286 0
315 -399 -233 0
315 399 -290 0
-315 399 290 0
-315 -399 233 0
316 396 -414 0
316 -414 239 0
-316 414 0
-316 -396 -239 0
317 -396 -236 0
317 396 -318 0
-317 396 318 0
-317 -396 236 0
318 -397 -244 0
318 397 -287 0
-318 397 287 0
-318 -397 244 0
-319 320 325 330 339 0
319 -339 0
319 -330 0
319 -320 0
319 -325 0
320 396 -411 322 0
320 -411 321 322 0
-320 411 0
-320 -322 0
-320 -396 -321 0
-321 397 399 0
-321 397 398 0
321 -397 0
321 -398 -399 0
322 -396 -132 0
322 396 -323 0
-322 396 323 0
-322 -396 132 0
323 -397 -225 0
323 397 -324 0
-323 397 324 0
-323 -397 225 0
324 398 -264 0
324 -398 -272 0
-324 -398 272 0
-324 398 264 0
325 396 -409 326 0
325 397 -409 326 0
-325 -326 0
-325 409 0
-325 -396 -397 0
-326 151 327 0
-326 176 327 0
326 -327 0
326 -151 -176 0
327 396 397 -328 0
327 396 -397 -146 0
-327 -396 0
-327 -397 146 0
-327 397 328 0
328 -398 -295 0
328 398 -329 0
-328 398 329 0
-328 -398 295 0
329 399 -261 0
329 -399 -265 0
-329 -399 265 0
-329 399 261 0
330 396 -401 331 0
330 -396 -401 145 0
-330 401 0
-330 396 -331 0
-330 -396 -145 0
331 -397 -328 0
331 397 -332 0
-331 397 332 0
-331 -397 328 0
332 398 -333 0
332 -398 -337 0
-332 -398 337 0
-332 398 333 0
333 -399 -334 0
333 399 -336 0
-333 -399 334 0
-333 399 336 0
334 400 -335 0
334 -400 -304 0
-334 -400 304 0
-334 400 335 0
335 -142 258 0
-335 142 0
-335 -258 0
-336 -258 0
-336 150 156 0
-336 400 150 0
336 -150 258 0
336 -400 -156 258 0
337 -399 -256 0
337 399 -338 0
-337 399 338 0
-337 -399 256 0
338 -400 -282 0
338 400 -305 0
-338 400 305 0
-338 -400 282 0
339 396 -416 340 0
339 -416 218 340 0
-339 416 0
-339 -340 0
-339 -396 -218 0
340 -396 -216 0
340 396 -341 0
-340 396 341 0
-340 -396 216 0
341 -397 -212 0
341 397 -342 0
-341 397 342 0
-341 -397 212 0
342 -398 -191 0
342 398 -315 0
-342 398 315 0
-342 -398 191 0
-343 344 347 -352 0
-343 344 347 350 0
343 -344 0
343 -347 0
343 -350 352 0
344 396 -412 345 0
344 -412 124 345 0
-344 412 0
-344 -345 0
-344 -396 -124 0
345 -396 -18 0
345 396 -346 0
-345 396 346 0
-345 -396 18 0
346 -397 -190 0
346 397 -313 0
-346 397 313 0
-346 -397 190 0
347 396 -410 348 0
347 -410 207 348 0
-347 410 0
-347 -348 0
-347 -396 -207 0
348 -396 -202 0
348 396 -349 0
-348 396 349 0
-348 -396 202 0
349 -397 -231 0
349 397 -306 0
-349 397 306 0
-349 -397 231 0
350 396 -415 0
350 -415 351 0
-350 415 0
-350 -396 -351 0
-351 397 398 399 0
351 -397 0
351 -399 0
351 -398 0
352 -396 -219 0
352 396 -353 0
-352 396 353 0
-352 -396 219 0
353 -397 -247 0
353 397 -271 0
-353 397 271 0
-353 -397 247 0
-354 355 359 -366 0
-354 355 359 365 0
354 -355 0
354 -359 0
354 -365 366 0
355 396 -408 356 0
355 -408 210 356 0
-355 408 0
-355 -356 0
-355 -396 -210 0
356 -396 -211 0
356 396 -357 0
-356 396 357 0
-356 -396 211 0
357 -397 -342 0
357 397 -358 0
-357 397 358 0
-357 -397 342 0
358 398 -312 0
358 -398 -314 0
-358 -398 314 0
-358 398 312 0
359 396 -403 361 0
359 -403 360 361 0
-359 403 0
-359 -361 0
-359 -396 -360 0
360 -397 -398 -399 0
-360 397 0
-360 398 0
-360 399 0
361 -396 -224 0
361 396 -362 0
-361 396 362 0
-361 -396 224 0
362 -397 -324 0
362 397 -363 0
-362 397 363 0
-362 -397 324 0
363 -398 -255 0
363 398 -364 0
-363 398 364 0
-363 -398 255 0
364 399 -334 0
364 -399 -338 0
-364 -399 338 0
-364 399 334 0
365 397 -405 0
365 396 -405 0
365 398 -405 0
-365 405 0
-365 -396 -397 -398 0
366 -396 -199 0
366 396 -367 0
-366 396 367 0
-366 -396 199 0
367 -397 -294 0
367 397 -368 0
-367 397 368 0
-367 -397 294 0
368 -398 -329 0
368 398 -337 0
-368 398 337 0
-368 -398 329 0
-433 0
2 0

